problem type Beams_shells
analysis_type Linear_Static
# meassure(SI) = fac** meassure(User defined)
units_names
N-m-kg        N    m  Pa       Kg     1.0       1.0      1.0      1.0
N-m-kg  N m Pa kg 1.0 1.0 1.0 1.0
end units_names
units_mesh m
units_res N-m-kg
GravityDirection=0.0 0.0 -1.0
GravityMagnitude=9.80665 Units=N-m-kg
NumOfDivisions=1
UseDKT
MainAndLocalStresses
GiveResultsStresses
OutputComposFS 0 0 0 0 0 0 0 0
OutputBeamsMaximums Automatic
# 20 degrees
DoSmoothing 0.35
NewPostProcessFormat 1
CoplanarityAngle=0.1
solver=Pardiso
NumCPUs 0
WriteResultsFormat=ascii
writeVonMises
writeMainStrengths
writeMainStresses
yield_criterion von_mises
combined_load_cases
active
combined_load name=New_combined_1 type=strengths
1.0,Loadcase_36
end combined_load
end combined_load_cases
materials
1 Units=N-m-kg group_name=aluminium t=0.005 E=68900000000000000.0 nu=0.33 Weight=26460.0
end material
mesh dimension = 3 elemtype Quadrilateral nnode = 4
coordinates
1 1.10000000 0.04000000 0.00000000
2 1.10000000 0.03000000 0.00000000
3 1.09000000 0.04000000 0.00000000
4 1.09000000 0.03000000 0.00000000
5 1.10000000 0.02000000 0.00000000
6 1.08000000 0.04000000 0.00000000
7 1.09000000 0.02000000 0.00000000
8 1.08000000 0.03000000 0.00000000
9 1.08000000 0.02000000 0.00000000
10 1.10000000 0.01000000 0.00000000
11 1.07000000 0.04000000 0.00000000
12 1.09000000 0.01000000 0.00000000
13 1.07000000 0.03000000 0.00000000
14 1.08000000 0.01000000 0.00000000
15 1.07000000 0.02000000 0.00000000
16 1.10000000 0.00000000 0.00000000
17 1.06000000 0.04000000 0.00000000
18 1.09000000 0.00000000 0.00000000
19 1.06000000 0.03000000 0.00000000
20 1.07000000 0.01000000 0.00000000
21 1.08000000 0.00000000 0.00000000
22 1.06000000 0.02000000 0.00000000
23 1.07000000 0.00000000 0.00000000
24 1.06000000 0.01000000 0.00000000
25 1.05000000 0.04000000 0.00000000
26 1.05000000 0.03000000 0.00000000
27 1.05000000 0.02000000 0.00000000
28 1.06000000 0.00000000 0.00000000
29 1.05000000 0.01000000 0.00000000
30 1.04000000 0.04000000 0.00000000
31 1.04000000 0.03000000 0.00000000
32 1.04000000 0.02000000 0.00000000
33 1.05000000 0.00000000 0.00000000
34 1.04000000 0.01000000 0.00000000
35 1.03000000 0.04000000 0.00000000
36 1.03000000 0.03000000 0.00000000
37 1.04000000 0.00000000 0.00000000
38 1.03000000 0.02000000 0.00000000
39 1.03000000 0.01000000 0.00000000
40 1.02000000 0.04000000 0.00000000
41 1.03000000 0.00000000 0.00000000
42 1.02000000 0.03000000 0.00000000
43 1.02000000 0.02000000 0.00000000
44 1.02000000 0.01000000 0.00000000
45 1.02000000 0.00000000 0.00000000
46 1.01000000 0.04000000 0.00000000
47 1.01000000 0.03000000 0.00000000
48 1.01000000 0.02000000 0.00000000
49 1.01000000 0.01000000 0.00000000
50 1.01000000 0.00000000 0.00000000
51 1.00000000 0.04000000 0.00000000
52 1.00000000 0.03000000 0.00000000
53 1.00000000 0.02000000 0.00000000
54 1.00000000 0.01000000 0.00000000
55 1.00000000 0.00000000 0.00000000
56 0.99000000 0.04000000 0.00000000
57 0.99000000 0.03000000 0.00000000
58 0.99000000 0.02000000 0.00000000
59 0.99000000 0.01000000 0.00000000
60 0.99000000 0.00000000 0.00000000
61 0.98000000 0.04000000 0.00000000
62 0.98000000 0.03000000 0.00000000
63 0.98000000 0.02000000 0.00000000
64 0.98000000 0.01000000 0.00000000
65 0.98000000 0.00000000 0.00000000
66 0.97000000 0.04000000 0.00000000
67 0.97000000 0.03000000 0.00000000
68 0.97000000 0.02000000 0.00000000
69 0.97000000 0.01000000 0.00000000
70 0.97000000 0.00000000 0.00000000
71 0.96000000 0.04000000 0.00000000
72 0.96000000 0.03000000 0.00000000
73 0.96000000 0.02000000 0.00000000
74 0.96000000 0.01000000 0.00000000
75 0.96000000 0.00000000 0.00000000
76 0.95000000 0.04000000 0.00000000
77 0.95000000 0.03000000 0.00000000
78 0.95000000 0.02000000 0.00000000
79 0.95000000 0.01000000 0.00000000
80 0.95000000 0.00000000 0.00000000
81 0.94000000 0.04000000 0.00000000
82 0.94000000 0.03000000 0.00000000
83 0.94000000 0.02000000 0.00000000
84 0.94000000 0.01000000 0.00000000
85 0.94000000 0.00000000 0.00000000
86 0.93000000 0.04000000 0.00000000
87 0.93000000 0.03000000 0.00000000
88 0.93000000 0.02000000 0.00000000
89 0.93000000 0.01000000 0.00000000
90 0.93000000 0.00000000 0.00000000
91 0.92000000 0.04000000 0.00000000
92 0.92000000 0.03000000 0.00000000
93 0.92000000 0.02000000 0.00000000
94 0.92000000 0.01000000 0.00000000
95 0.92000000 0.00000000 0.00000000
96 0.91000000 0.04000000 0.00000000
97 0.91000000 0.03000000 0.00000000
98 0.91000000 0.02000000 0.00000000
99 0.91000000 0.01000000 0.00000000
100 0.91000000 0.00000000 0.00000000
101 0.90000000 0.04000000 0.00000000
102 0.90000000 0.03000000 0.00000000
103 0.90000000 0.02000000 0.00000000
104 0.90000000 0.01000000 0.00000000
105 0.90000000 0.00000000 0.00000000
106 0.89000000 0.04000000 0.00000000
107 0.89000000 0.03000000 0.00000000
108 0.89000000 0.02000000 0.00000000
109 0.89000000 0.01000000 0.00000000
110 0.89000000 0.00000000 0.00000000
111 0.88000000 0.04000000 0.00000000
112 0.88000000 0.03000000 0.00000000
113 0.88000000 0.02000000 0.00000000
114 0.88000000 0.01000000 0.00000000
115 0.88000000 0.00000000 0.00000000
116 0.87000000 0.04000000 0.00000000
117 0.87000000 0.03000000 0.00000000
118 0.87000000 0.02000000 0.00000000
119 0.87000000 0.01000000 0.00000000
120 0.87000000 0.00000000 0.00000000
121 0.86000000 0.04000000 0.00000000
122 0.86000000 0.03000000 0.00000000
123 0.86000000 0.02000000 0.00000000
124 0.86000000 0.01000000 0.00000000
125 0.86000000 0.00000000 0.00000000
126 0.85000000 0.04000000 0.00000000
127 0.85000000 0.03000000 0.00000000
128 0.85000000 0.02000000 0.00000000
129 0.85000000 0.01000000 0.00000000
130 0.85000000 0.00000000 0.00000000
131 0.84000000 0.04000000 0.00000000
132 0.84000000 0.03000000 0.00000000
133 0.84000000 0.02000000 0.00000000
134 0.84000000 0.01000000 0.00000000
135 0.84000000 0.00000000 0.00000000
136 0.83000000 0.04000000 0.00000000
137 0.83000000 0.03000000 0.00000000
138 0.83000000 0.02000000 0.00000000
139 0.83000000 0.01000000 0.00000000
140 0.83000000 0.00000000 0.00000000
141 0.82000000 0.04000000 0.00000000
142 0.82000000 0.03000000 0.00000000
143 0.82000000 0.02000000 0.00000000
144 0.82000000 0.01000000 0.00000000
145 0.82000000 0.00000000 0.00000000
146 0.81000000 0.04000000 0.00000000
147 0.81000000 0.03000000 0.00000000
148 0.81000000 0.02000000 0.00000000
149 0.81000000 0.01000000 0.00000000
150 0.81000000 0.00000000 0.00000000
151 0.80000000 0.04000000 0.00000000
152 0.80000000 0.03000000 0.00000000
153 0.80000000 0.02000000 0.00000000
154 0.80000000 0.01000000 0.00000000
155 0.80000000 0.00000000 0.00000000
156 0.79000000 0.04000000 0.00000000
157 0.79000000 0.03000000 0.00000000
158 0.79000000 0.02000000 0.00000000
159 0.79000000 0.01000000 0.00000000
160 0.79000000 0.00000000 0.00000000
161 0.78000000 0.04000000 0.00000000
162 0.78000000 0.03000000 0.00000000
163 0.78000000 0.02000000 0.00000000
164 0.78000000 0.01000000 0.00000000
165 0.78000000 0.00000000 0.00000000
166 0.77000000 0.04000000 0.00000000
167 0.77000000 0.03000000 0.00000000
168 0.77000000 0.02000000 0.00000000
169 0.77000000 0.01000000 0.00000000
170 0.77000000 0.00000000 0.00000000
171 0.76000000 0.04000000 0.00000000
172 0.76000000 0.03000000 0.00000000
173 0.76000000 0.02000000 0.00000000
174 0.76000000 0.01000000 0.00000000
175 0.76000000 0.00000000 0.00000000
176 0.75000000 0.04000000 0.00000000
177 0.75000000 0.03000000 0.00000000
178 0.75000000 0.02000000 0.00000000
179 0.75000000 0.01000000 0.00000000
180 0.75000000 0.00000000 0.00000000
181 0.74000000 0.04000000 0.00000000
182 0.74000000 0.03000000 0.00000000
183 0.74000000 0.02000000 0.00000000
184 0.74000000 0.01000000 0.00000000
185 0.74000000 0.00000000 0.00000000
186 0.73000000 0.04000000 0.00000000
187 0.73000000 0.03000000 0.00000000
188 0.73000000 0.02000000 0.00000000
189 0.73000000 0.01000000 0.00000000
190 0.73000000 0.00000000 0.00000000
191 0.72000000 0.04000000 0.00000000
192 0.72000000 0.03000000 0.00000000
193 0.72000000 0.02000000 0.00000000
194 0.72000000 0.01000000 0.00000000
195 0.72000000 0.00000000 0.00000000
196 0.71000000 0.04000000 0.00000000
197 0.71000000 0.03000000 0.00000000
198 0.71000000 0.02000000 0.00000000
199 0.71000000 0.01000000 0.00000000
200 0.71000000 0.00000000 0.00000000
201 0.70000000 0.04000000 0.00000000
202 0.70000000 0.03000000 0.00000000
203 0.70000000 0.02000000 0.00000000
204 0.70000000 0.01000000 0.00000000
205 0.70000000 0.00000000 0.00000000
206 0.69000000 0.04000000 0.00000000
207 0.69000000 0.03000000 0.00000000
208 0.69000000 0.02000000 0.00000000
209 0.69000000 0.01000000 0.00000000
210 0.69000000 0.00000000 0.00000000
211 0.68000000 0.04000000 0.00000000
212 0.68000000 0.03000000 0.00000000
213 0.68000000 0.02000000 0.00000000
214 0.68000000 0.01000000 0.00000000
215 0.68000000 0.00000000 0.00000000
216 0.67000000 0.04000000 0.00000000
217 0.67000000 0.03000000 0.00000000
218 0.67000000 0.02000000 0.00000000
219 0.67000000 0.01000000 0.00000000
220 0.67000000 0.00000000 0.00000000
221 0.66000000 0.04000000 0.00000000
222 0.66000000 0.03000000 0.00000000
223 0.66000000 0.02000000 0.00000000
224 0.66000000 0.01000000 0.00000000
225 0.66000000 0.00000000 0.00000000
226 0.65000000 0.04000000 0.00000000
227 0.65000000 0.03000000 0.00000000
228 0.65000000 0.02000000 0.00000000
229 0.65000000 0.01000000 0.00000000
230 0.65000000 0.00000000 0.00000000
231 0.64000000 0.04000000 0.00000000
232 0.64000000 0.03000000 0.00000000
233 0.64000000 0.02000000 0.00000000
234 0.64000000 0.01000000 0.00000000
235 0.64000000 0.00000000 0.00000000
236 0.63000000 0.04000000 0.00000000
237 0.63000000 0.03000000 0.00000000
238 0.63000000 0.02000000 0.00000000
239 0.63000000 0.01000000 0.00000000
240 0.63000000 0.00000000 0.00000000
241 0.62000000 0.04000000 0.00000000
242 0.62000000 0.03000000 0.00000000
243 0.62000000 0.02000000 0.00000000
244 0.62000000 0.01000000 0.00000000
245 0.62000000 0.00000000 0.00000000
246 0.61000000 0.04000000 0.00000000
247 0.61000000 0.03000000 0.00000000
248 0.61000000 0.02000000 0.00000000
249 0.61000000 0.01000000 0.00000000
250 0.61000000 0.00000000 0.00000000
251 0.60000000 0.04000000 0.00000000
252 0.60000000 0.03000000 0.00000000
253 0.60000000 0.02000000 0.00000000
254 0.60000000 0.01000000 0.00000000
255 0.60000000 0.00000000 0.00000000
256 0.59000000 0.04000000 0.00000000
257 0.59000000 0.03000000 0.00000000
258 0.59000000 0.02000000 0.00000000
259 0.59000000 0.01000000 0.00000000
260 0.59000000 0.00000000 0.00000000
261 0.58000000 0.04000000 0.00000000
262 0.58000000 0.03000000 0.00000000
263 0.58000000 0.02000000 0.00000000
264 0.58000000 0.01000000 0.00000000
265 0.58000000 0.00000000 0.00000000
266 0.57000000 0.04000000 0.00000000
267 0.57000000 0.03000000 0.00000000
268 0.57000000 0.02000000 0.00000000
269 0.57000000 0.01000000 0.00000000
270 0.57000000 0.00000000 0.00000000
271 0.56000000 0.04000000 0.00000000
272 0.56000000 0.03000000 0.00000000
273 0.56000000 0.02000000 0.00000000
274 0.56000000 0.01000000 0.00000000
275 0.56000000 0.00000000 0.00000000
276 0.55000000 0.04000000 0.00000000
277 0.55000000 0.03000000 0.00000000
278 0.55000000 0.02000000 0.00000000
279 0.55000000 0.01000000 0.00000000
280 0.55000000 0.00000000 0.00000000
281 0.54000000 0.04000000 0.00000000
282 0.54000000 0.03000000 0.00000000
283 0.54000000 0.02000000 0.00000000
284 0.54000000 0.01000000 0.00000000
285 0.54000000 0.00000000 0.00000000
286 0.53000000 0.04000000 0.00000000
287 0.53000000 0.03000000 0.00000000
288 0.53000000 0.02000000 0.00000000
289 0.53000000 0.01000000 0.00000000
290 0.53000000 0.00000000 0.00000000
291 0.52000000 0.04000000 0.00000000
292 0.52000000 0.03000000 0.00000000
293 0.52000000 0.02000000 0.00000000
294 0.52000000 0.01000000 0.00000000
295 0.52000000 0.00000000 0.00000000
296 0.51000000 0.04000000 0.00000000
297 0.51000000 0.03000000 0.00000000
298 0.51000000 0.02000000 0.00000000
299 0.51000000 0.01000000 0.00000000
300 0.51000000 0.00000000 0.00000000
301 0.50000000 0.04000000 0.00000000
302 0.50000000 0.03000000 0.00000000
303 0.50000000 0.02000000 0.00000000
304 0.50000000 0.01000000 0.00000000
305 0.50000000 0.00000000 0.00000000
306 0.49000000 0.04000000 0.00000000
307 0.49000000 0.03000000 0.00000000
308 0.49000000 0.02000000 0.00000000
309 0.49000000 0.01000000 0.00000000
310 0.49000000 0.00000000 0.00000000
311 0.48000000 0.04000000 0.00000000
312 0.48000000 0.03000000 0.00000000
313 0.48000000 0.02000000 0.00000000
314 0.48000000 0.01000000 0.00000000
315 0.48000000 0.00000000 0.00000000
316 0.47000000 0.04000000 0.00000000
317 0.47000000 0.03000000 0.00000000
318 0.47000000 0.02000000 0.00000000
319 0.47000000 0.01000000 0.00000000
320 0.47000000 0.00000000 0.00000000
321 0.46000000 0.04000000 0.00000000
322 0.46000000 0.03000000 0.00000000
323 0.46000000 0.02000000 0.00000000
324 0.46000000 0.01000000 0.00000000
325 0.46000000 0.00000000 0.00000000
326 0.45000000 0.04000000 0.00000000
327 0.45000000 0.03000000 0.00000000
328 0.45000000 0.02000000 0.00000000
329 0.45000000 0.01000000 0.00000000
330 0.45000000 0.00000000 0.00000000
331 0.44000000 0.04000000 0.00000000
332 0.44000000 0.03000000 0.00000000
333 0.44000000 0.02000000 0.00000000
334 0.44000000 0.01000000 0.00000000
335 0.44000000 0.00000000 0.00000000
336 0.43000000 0.04000000 0.00000000
337 0.43000000 0.03000000 0.00000000
338 0.43000000 0.02000000 0.00000000
339 0.43000000 0.01000000 0.00000000
340 0.43000000 0.00000000 0.00000000
341 0.42000000 0.04000000 0.00000000
342 0.42000000 0.03000000 0.00000000
343 0.42000000 0.02000000 0.00000000
344 0.42000000 0.01000000 0.00000000
345 0.42000000 0.00000000 0.00000000
346 0.41000000 0.04000000 0.00000000
347 0.41000000 0.03000000 0.00000000
348 0.41000000 0.02000000 0.00000000
349 0.41000000 0.01000000 0.00000000
350 0.41000000 0.00000000 0.00000000
351 0.40000000 0.04000000 0.00000000
352 0.40000000 0.03000000 0.00000000
353 0.40000000 0.02000000 0.00000000
354 0.40000000 0.01000000 0.00000000
355 0.40000000 0.00000000 0.00000000
356 0.39000000 0.04000000 0.00000000
357 0.39000000 0.03000000 0.00000000
358 0.39000000 0.02000000 0.00000000
359 0.39000000 0.01000000 0.00000000
360 0.39000000 0.00000000 0.00000000
361 0.38000000 0.04000000 0.00000000
362 0.38000000 0.03000000 0.00000000
363 0.38000000 0.02000000 0.00000000
364 0.38000000 0.01000000 0.00000000
365 0.38000000 0.00000000 0.00000000
366 0.37000000 0.04000000 0.00000000
367 0.37000000 0.03000000 0.00000000
368 0.37000000 0.02000000 0.00000000
369 0.37000000 0.01000000 0.00000000
370 0.37000000 0.00000000 0.00000000
371 0.36000000 0.04000000 0.00000000
372 0.36000000 0.03000000 0.00000000
373 0.36000000 0.02000000 0.00000000
374 0.36000000 0.01000000 0.00000000
375 0.36000000 0.00000000 0.00000000
376 0.35000000 0.04000000 0.00000000
377 0.35000000 0.03000000 0.00000000
378 0.35000000 0.02000000 0.00000000
379 0.35000000 0.01000000 0.00000000
380 0.35000000 0.00000000 0.00000000
381 0.34000000 0.04000000 0.00000000
382 0.34000000 0.03000000 0.00000000
383 0.34000000 0.02000000 0.00000000
384 0.34000000 0.01000000 0.00000000
385 0.34000000 0.00000000 0.00000000
386 0.33000000 0.04000000 0.00000000
387 0.33000000 0.03000000 0.00000000
388 0.33000000 0.02000000 0.00000000
389 0.33000000 0.01000000 0.00000000
390 0.33000000 0.00000000 0.00000000
391 0.32000000 0.04000000 0.00000000
392 0.32000000 0.03000000 0.00000000
393 0.32000000 0.02000000 0.00000000
394 0.32000000 0.01000000 0.00000000
395 0.32000000 0.00000000 0.00000000
396 0.31000000 0.04000000 0.00000000
397 0.31000000 0.03000000 0.00000000
398 0.31000000 0.02000000 0.00000000
399 0.31000000 0.01000000 0.00000000
400 0.31000000 0.00000000 0.00000000
401 0.30000000 0.04000000 0.00000000
402 0.30000000 0.03000000 0.00000000
403 0.30000000 0.02000000 0.00000000
404 0.30000000 0.01000000 0.00000000
405 0.30000000 0.00000000 0.00000000
406 0.29000000 0.04000000 0.00000000
407 0.29000000 0.03000000 0.00000000
408 0.29000000 0.02000000 0.00000000
409 0.29000000 0.01000000 0.00000000
410 0.29000000 0.00000000 0.00000000
411 0.28000000 0.04000000 0.00000000
412 0.28000000 0.03000000 0.00000000
413 0.28000000 0.02000000 0.00000000
414 0.28000000 0.01000000 0.00000000
415 0.28000000 0.00000000 0.00000000
416 0.27000000 0.04000000 0.00000000
417 0.27000000 0.03000000 0.00000000
418 0.27000000 0.02000000 0.00000000
419 0.27000000 0.01000000 0.00000000
420 0.27000000 0.00000000 0.00000000
421 0.26000000 0.04000000 0.00000000
422 0.26000000 0.03000000 0.00000000
423 0.26000000 0.02000000 0.00000000
424 0.26000000 0.01000000 0.00000000
425 0.26000000 0.00000000 0.00000000
426 0.25000000 0.04000000 0.00000000
427 0.25000000 0.03000000 0.00000000
428 0.25000000 0.02000000 0.00000000
429 0.25000000 0.01000000 0.00000000
430 0.25000000 0.00000000 0.00000000
431 0.24000000 0.04000000 0.00000000
432 0.24000000 0.03000000 0.00000000
433 0.24000000 0.02000000 0.00000000
434 0.24000000 0.01000000 0.00000000
435 0.24000000 0.00000000 0.00000000
436 0.23000000 0.04000000 0.00000000
437 0.23000000 0.03000000 0.00000000
438 0.23000000 0.02000000 0.00000000
439 0.23000000 0.01000000 0.00000000
440 0.23000000 0.00000000 0.00000000
441 0.22000000 0.04000000 0.00000000
442 0.22000000 0.03000000 0.00000000
443 0.22000000 0.02000000 0.00000000
444 0.22000000 0.01000000 0.00000000
445 0.22000000 0.00000000 0.00000000
446 0.21000000 0.04000000 0.00000000
447 0.21000000 0.03000000 0.00000000
448 0.21000000 0.02000000 0.00000000
449 0.21000000 0.01000000 0.00000000
450 0.21000000 0.00000000 0.00000000
451 0.20000000 0.04000000 0.00000000
452 0.20000000 0.03000000 0.00000000
453 0.20000000 0.02000000 0.00000000
454 0.20000000 0.01000000 0.00000000
455 0.20000000 0.00000000 0.00000000
456 0.19000000 0.04000000 0.00000000
457 0.19000000 0.03000000 0.00000000
458 0.19000000 0.02000000 0.00000000
459 0.19000000 0.01000000 0.00000000
460 0.19000000 0.00000000 0.00000000
461 0.18000000 0.04000000 0.00000000
462 0.18000000 0.03000000 0.00000000
463 0.18000000 0.02000000 0.00000000
464 0.18000000 0.01000000 0.00000000
465 0.18000000 0.00000000 0.00000000
466 0.17000000 0.04000000 0.00000000
467 0.17000000 0.03000000 0.00000000
468 0.17000000 0.02000000 0.00000000
469 0.17000000 0.01000000 0.00000000
470 0.17000000 0.00000000 0.00000000
471 0.16000000 0.04000000 0.00000000
472 0.16000000 0.03000000 0.00000000
473 0.16000000 0.02000000 0.00000000
474 0.16000000 0.01000000 0.00000000
475 0.16000000 0.00000000 0.00000000
476 0.15000000 0.04000000 0.00000000
477 0.15000000 0.03000000 0.00000000
478 0.15000000 0.02000000 0.00000000
479 0.15000000 0.01000000 0.00000000
480 0.15000000 0.00000000 0.00000000
481 0.14000000 0.04000000 0.00000000
482 0.14000000 0.03000000 0.00000000
483 0.14000000 0.02000000 0.00000000
484 0.14000000 0.01000000 0.00000000
485 0.14000000 0.00000000 0.00000000
486 0.13000000 0.04000000 0.00000000
487 0.13000000 0.03000000 0.00000000
488 0.13000000 0.02000000 0.00000000
489 0.13000000 0.01000000 0.00000000
490 0.13000000 0.00000000 0.00000000
491 0.12000000 0.04000000 0.00000000
492 0.12000000 0.03000000 0.00000000
493 0.12000000 0.02000000 0.00000000
494 0.12000000 0.01000000 0.00000000
495 0.12000000 0.00000000 0.00000000
496 0.11000000 0.04000000 0.00000000
497 0.11000000 0.03000000 0.00000000
498 0.11000000 0.02000000 0.00000000
499 0.11000000 0.01000000 0.00000000
500 0.11000000 0.00000000 0.00000000
501 0.10000000 0.04000000 0.00000000
502 0.10000000 0.03000000 0.00000000
503 0.10000000 0.02000000 0.00000000
504 0.10000000 0.01000000 0.00000000
505 0.10000000 0.00000000 0.00000000
506 0.09000000 0.04000000 0.00000000
507 0.09000000 0.03000000 0.00000000
508 0.09000000 0.02000000 0.00000000
509 0.09000000 0.01000000 0.00000000
510 0.09000000 0.00000000 0.00000000
511 0.08000000 0.04000000 0.00000000
512 0.08000000 0.03000000 0.00000000
513 0.08000000 0.02000000 0.00000000
514 0.08000000 0.01000000 0.00000000
515 0.08000000 0.00000000 0.00000000
516 0.07000000 0.04000000 0.00000000
517 0.07000000 0.03000000 0.00000000
518 0.07000000 0.02000000 0.00000000
519 0.07000000 0.01000000 0.00000000
520 0.07000000 0.00000000 0.00000000
521 0.06000000 0.04000000 0.00000000
522 0.06000000 0.03000000 0.00000000
523 0.06000000 0.02000000 0.00000000
524 0.06000000 0.01000000 0.00000000
525 0.06000000 0.00000000 0.00000000
526 0.05000000 0.04000000 0.00000000
527 0.05000000 0.03000000 0.00000000
528 0.05000000 0.02000000 0.00000000
529 0.05000000 0.01000000 0.00000000
530 0.05000000 0.00000000 0.00000000
531 0.04000000 0.04000000 0.00000000
532 0.04000000 0.03000000 0.00000000
533 0.04000000 0.02000000 0.00000000
534 0.04000000 0.01000000 0.00000000
535 0.04000000 0.00000000 0.00000000
536 0.03000000 0.04000000 0.00000000
537 0.03000000 0.03000000 0.00000000
538 0.03000000 0.02000000 0.00000000
539 0.03000000 0.01000000 0.00000000
540 0.03000000 0.00000000 0.00000000
541 0.02000000 0.04000000 0.00000000
542 0.02000000 0.03000000 0.00000000
543 0.02000000 0.02000000 0.00000000
544 0.02000000 0.01000000 0.00000000
545 0.02000000 0.00000000 0.00000000
546 0.01000000 0.04000000 0.00000000
547 0.01000000 0.03000000 0.00000000
548 0.01000000 0.02000000 0.00000000
549 0.01000000 0.01000000 0.00000000
550 0.01000000 0.00000000 0.00000000
551 0.00000000 0.04000000 0.00000000
552 0.00000000 0.03000000 0.00000000
553 0.00000000 0.02000000 0.00000000
554 0.00000000 0.01000000 0.00000000
555 0.00000000 0.00000000 0.00000000
end coordinates
elements
1 550 549 554 555 1
2 549 548 553 554 1
3 548 547 552 553 1
4 547 546 551 552 1
5 545 544 549 550 1
6 544 543 548 549 1
7 543 542 547 548 1
8 542 541 546 547 1
9 540 539 544 545 1
10 539 538 543 544 1
11 538 537 542 543 1
12 537 536 541 542 1
13 535 534 539 540 1
14 534 533 538 539 1
15 533 532 537 538 1
16 532 531 536 537 1
17 530 529 534 535 1
18 529 528 533 534 1
19 528 527 532 533 1
20 527 526 531 532 1
21 525 524 529 530 1
22 524 523 528 529 1
23 523 522 527 528 1
24 522 521 526 527 1
25 520 519 524 525 1
26 519 518 523 524 1
27 518 517 522 523 1
28 517 516 521 522 1
29 515 514 519 520 1
30 514 513 518 519 1
31 513 512 517 518 1
32 512 511 516 517 1
33 510 509 514 515 1
34 509 508 513 514 1
35 508 507 512 513 1
36 507 506 511 512 1
37 505 504 509 510 1
38 504 503 508 509 1
39 503 502 507 508 1
40 502 501 506 507 1
41 500 499 504 505 1
42 499 498 503 504 1
43 498 497 502 503 1
44 497 496 501 502 1
45 495 494 499 500 1
46 494 493 498 499 1
47 493 492 497 498 1
48 492 491 496 497 1
49 490 489 494 495 1
50 489 488 493 494 1
51 488 487 492 493 1
52 487 486 491 492 1
53 485 484 489 490 1
54 484 483 488 489 1
55 483 482 487 488 1
56 482 481 486 487 1
57 480 479 484 485 1
58 479 478 483 484 1
59 478 477 482 483 1
60 477 476 481 482 1
61 475 474 479 480 1
62 474 473 478 479 1
63 473 472 477 478 1
64 472 471 476 477 1
65 470 469 474 475 1
66 469 468 473 474 1
67 468 467 472 473 1
68 467 466 471 472 1
69 465 464 469 470 1
70 464 463 468 469 1
71 463 462 467 468 1
72 462 461 466 467 1
73 460 459 464 465 1
74 459 458 463 464 1
75 458 457 462 463 1
76 457 456 461 462 1
77 455 454 459 460 1
78 454 453 458 459 1
79 453 452 457 458 1
80 452 451 456 457 1
81 450 449 454 455 1
82 449 448 453 454 1
83 448 447 452 453 1
84 447 446 451 452 1
85 445 444 449 450 1
86 444 443 448 449 1
87 443 442 447 448 1
88 442 441 446 447 1
89 440 439 444 445 1
90 439 438 443 444 1
91 438 437 442 443 1
92 437 436 441 442 1
93 435 434 439 440 1
94 434 433 438 439 1
95 433 432 437 438 1
96 432 431 436 437 1
97 430 429 434 435 1
98 429 428 433 434 1
99 428 427 432 433 1
100 427 426 431 432 1
101 425 424 429 430 1
102 424 423 428 429 1
103 423 422 427 428 1
104 422 421 426 427 1
105 420 419 424 425 1
106 419 418 423 424 1
107 418 417 422 423 1
108 417 416 421 422 1
109 415 414 419 420 1
110 414 413 418 419 1
111 413 412 417 418 1
112 412 411 416 417 1
113 410 409 414 415 1
114 409 408 413 414 1
115 408 407 412 413 1
116 407 406 411 412 1
117 405 404 409 410 1
118 404 403 408 409 1
119 403 402 407 408 1
120 402 401 406 407 1
121 400 399 404 405 1
122 399 398 403 404 1
123 398 397 402 403 1
124 397 396 401 402 1
125 395 394 399 400 1
126 394 393 398 399 1
127 393 392 397 398 1
128 392 391 396 397 1
129 390 389 394 395 1
130 389 388 393 394 1
131 388 387 392 393 1
132 387 386 391 392 1
133 385 384 389 390 1
134 384 383 388 389 1
135 383 382 387 388 1
136 382 381 386 387 1
137 380 379 384 385 1
138 379 378 383 384 1
139 378 377 382 383 1
140 377 376 381 382 1
141 375 374 379 380 1
142 374 373 378 379 1
143 373 372 377 378 1
144 372 371 376 377 1
145 370 369 374 375 1
146 369 368 373 374 1
147 368 367 372 373 1
148 367 366 371 372 1
149 365 364 369 370 1
150 364 363 368 369 1
151 363 362 367 368 1
152 362 361 366 367 1
153 360 359 364 365 1
154 359 358 363 364 1
155 358 357 362 363 1
156 357 356 361 362 1
157 355 354 359 360 1
158 354 353 358 359 1
159 353 352 357 358 1
160 352 351 356 357 1
161 350 349 354 355 1
162 349 348 353 354 1
163 348 347 352 353 1
164 347 346 351 352 1
165 345 344 349 350 1
166 344 343 348 349 1
167 343 342 347 348 1
168 342 341 346 347 1
169 340 339 344 345 1
170 339 338 343 344 1
171 338 337 342 343 1
172 337 336 341 342 1
173 335 334 339 340 1
174 334 333 338 339 1
175 333 332 337 338 1
176 332 331 336 337 1
177 330 329 334 335 1
178 329 328 333 334 1
179 328 327 332 333 1
180 327 326 331 332 1
181 325 324 329 330 1
182 324 323 328 329 1
183 323 322 327 328 1
184 322 321 326 327 1
185 320 319 324 325 1
186 319 318 323 324 1
187 318 317 322 323 1
188 317 316 321 322 1
189 315 314 319 320 1
190 314 313 318 319 1
191 313 312 317 318 1
192 312 311 316 317 1
193 310 309 314 315 1
194 309 308 313 314 1
195 308 307 312 313 1
196 307 306 311 312 1
197 305 304 309 310 1
198 304 303 308 309 1
199 303 302 307 308 1
200 302 301 306 307 1
201 300 299 304 305 1
202 299 298 303 304 1
203 298 297 302 303 1
204 297 296 301 302 1
205 295 294 299 300 1
206 294 293 298 299 1
207 293 292 297 298 1
208 292 291 296 297 1
209 290 289 294 295 1
210 289 288 293 294 1
211 288 287 292 293 1
212 287 286 291 292 1
213 285 284 289 290 1
214 284 283 288 289 1
215 283 282 287 288 1
216 282 281 286 287 1
217 280 279 284 285 1
218 279 278 283 284 1
219 278 277 282 283 1
220 277 276 281 282 1
221 275 274 279 280 1
222 274 273 278 279 1
223 273 272 277 278 1
224 272 271 276 277 1
225 270 269 274 275 1
226 269 268 273 274 1
227 268 267 272 273 1
228 267 266 271 272 1
229 265 264 269 270 1
230 264 263 268 269 1
231 263 262 267 268 1
232 262 261 266 267 1
233 260 259 264 265 1
234 259 258 263 264 1
235 258 257 262 263 1
236 257 256 261 262 1
237 255 254 259 260 1
238 254 253 258 259 1
239 253 252 257 258 1
240 252 251 256 257 1
241 250 249 254 255 1
242 249 248 253 254 1
243 248 247 252 253 1
244 247 246 251 252 1
245 245 244 249 250 1
246 244 243 248 249 1
247 243 242 247 248 1
248 242 241 246 247 1
249 240 239 244 245 1
250 239 238 243 244 1
251 238 237 242 243 1
252 237 236 241 242 1
253 235 234 239 240 1
254 234 233 238 239 1
255 233 232 237 238 1
256 232 231 236 237 1
257 230 229 234 235 1
258 229 228 233 234 1
259 228 227 232 233 1
260 227 226 231 232 1
261 225 224 229 230 1
262 224 223 228 229 1
263 223 222 227 228 1
264 222 221 226 227 1
265 220 219 224 225 1
266 219 218 223 224 1
267 218 217 222 223 1
268 217 216 221 222 1
269 215 214 219 220 1
270 214 213 218 219 1
271 213 212 217 218 1
272 212 211 216 217 1
273 210 209 214 215 1
274 209 208 213 214 1
275 208 207 212 213 1
276 207 206 211 212 1
277 205 204 209 210 1
278 204 203 208 209 1
279 203 202 207 208 1
280 202 201 206 207 1
281 200 199 204 205 1
282 199 198 203 204 1
283 198 197 202 203 1
284 197 196 201 202 1
285 195 194 199 200 1
286 194 193 198 199 1
287 193 192 197 198 1
288 192 191 196 197 1
289 190 189 194 195 1
290 189 188 193 194 1
291 188 187 192 193 1
292 187 186 191 192 1
293 185 184 189 190 1
294 184 183 188 189 1
295 183 182 187 188 1
296 182 181 186 187 1
297 180 179 184 185 1
298 179 178 183 184 1
299 178 177 182 183 1
300 177 176 181 182 1
301 175 174 179 180 1
302 174 173 178 179 1
303 173 172 177 178 1
304 172 171 176 177 1
305 170 169 174 175 1
306 169 168 173 174 1
307 168 167 172 173 1
308 167 166 171 172 1
309 165 164 169 170 1
310 164 163 168 169 1
311 163 162 167 168 1
312 162 161 166 167 1
313 160 159 164 165 1
314 159 158 163 164 1
315 158 157 162 163 1
316 157 156 161 162 1
317 155 154 159 160 1
318 154 153 158 159 1
319 153 152 157 158 1
320 152 151 156 157 1
321 150 149 154 155 1
322 149 148 153 154 1
323 148 147 152 153 1
324 147 146 151 152 1
325 145 144 149 150 1
326 144 143 148 149 1
327 143 142 147 148 1
328 142 141 146 147 1
329 140 139 144 145 1
330 139 138 143 144 1
331 138 137 142 143 1
332 137 136 141 142 1
333 135 134 139 140 1
334 134 133 138 139 1
335 133 132 137 138 1
336 132 131 136 137 1
337 130 129 134 135 1
338 129 128 133 134 1
339 128 127 132 133 1
340 127 126 131 132 1
341 125 124 129 130 1
342 124 123 128 129 1
343 123 122 127 128 1
344 122 121 126 127 1
345 120 119 124 125 1
346 119 118 123 124 1
347 118 117 122 123 1
348 117 116 121 122 1
349 115 114 119 120 1
350 114 113 118 119 1
351 113 112 117 118 1
352 112 111 116 117 1
353 110 109 114 115 1
354 109 108 113 114 1
355 108 107 112 113 1
356 107 106 111 112 1
357 105 104 109 110 1
358 104 103 108 109 1
359 103 102 107 108 1
360 102 101 106 107 1
361 100 99 104 105 1
362 99 98 103 104 1
363 98 97 102 103 1
364 97 96 101 102 1
365 95 94 99 100 1
366 94 93 98 99 1
367 93 92 97 98 1
368 92 91 96 97 1
369 90 89 94 95 1
370 89 88 93 94 1
371 88 87 92 93 1
372 87 86 91 92 1
373 85 84 89 90 1
374 84 83 88 89 1
375 83 82 87 88 1
376 82 81 86 87 1
377 80 79 84 85 1
378 79 78 83 84 1
379 78 77 82 83 1
380 77 76 81 82 1
381 75 74 79 80 1
382 74 73 78 79 1
383 73 72 77 78 1
384 72 71 76 77 1
385 70 69 74 75 1
386 69 68 73 74 1
387 68 67 72 73 1
388 67 66 71 72 1
389 65 64 69 70 1
390 64 63 68 69 1
391 63 62 67 68 1
392 62 61 66 67 1
393 60 59 64 65 1
394 59 58 63 64 1
395 58 57 62 63 1
396 57 56 61 62 1
397 55 54 59 60 1
398 54 53 58 59 1
399 53 52 57 58 1
400 52 51 56 57 1
401 50 49 54 55 1
402 49 48 53 54 1
403 48 47 52 53 1
404 47 46 51 52 1
405 45 44 49 50 1
406 44 43 48 49 1
407 43 42 47 48 1
408 42 40 46 47 1
409 41 39 44 45 1
410 39 38 43 44 1
411 38 36 42 43 1
412 36 35 40 42 1
413 37 34 39 41 1
414 34 32 38 39 1
415 32 31 36 38 1
416 31 30 35 36 1
417 33 29 34 37 1
418 29 27 32 34 1
419 27 26 31 32 1
420 26 25 30 31 1
421 28 24 29 33 1
422 24 22 27 29 1
423 22 19 26 27 1
424 19 17 25 26 1
425 23 20 24 28 1
426 20 15 22 24 1
427 15 13 19 22 1
428 13 11 17 19 1
429 21 14 20 23 1
430 14 9 15 20 1
431 9 8 13 15 1
432 8 6 11 13 1
433 18 12 14 21 1
434 12 7 9 14 1
435 7 4 8 9 1
436 4 3 6 8 1
437 16 10 12 18 1
438 10 5 7 12 1
439 5 2 4 7 1
440 2 1 3 4 1
end elements
constraints
17 111000 0 0 0 0 0 0 Units=N-m-kg
19 111000 0 0 0 0 0 0 Units=N-m-kg
22 111000 0 0 0 0 0 0 Units=N-m-kg
24 111000 0 0 0 0 0 0 Units=N-m-kg
25 111000 0 0 0 0 0 0 Units=N-m-kg
26 111000 0 0 0 0 0 0 Units=N-m-kg
27 111000 0 0 0 0 0 0 Units=N-m-kg
28 111000 0 0 0 0 0 0 Units=N-m-kg
29 111000 0 0 0 0 0 0 Units=N-m-kg
30 111000 0 0 0 0 0 0 Units=N-m-kg
31 111000 0 0 0 0 0 0 Units=N-m-kg
32 111000 0 0 0 0 0 0 Units=N-m-kg
33 111000 0 0 0 0 0 0 Units=N-m-kg
34 111000 0 0 0 0 0 0 Units=N-m-kg
35 111000 0 0 0 0 0 0 Units=N-m-kg
36 111000 0 0 0 0 0 0 Units=N-m-kg
37 111000 0 0 0 0 0 0 Units=N-m-kg
38 111000 0 0 0 0 0 0 Units=N-m-kg
39 111000 0 0 0 0 0 0 Units=N-m-kg
40 111000 0 0 0 0 0 0 Units=N-m-kg
41 111000 0 0 0 0 0 0 Units=N-m-kg
42 111000 0 0 0 0 0 0 Units=N-m-kg
43 111000 0 0 0 0 0 0 Units=N-m-kg
44 111000 0 0 0 0 0 0 Units=N-m-kg
45 111000 0 0 0 0 0 0 Units=N-m-kg
46 111000 0 0 0 0 0 0 Units=N-m-kg
47 111000 0 0 0 0 0 0 Units=N-m-kg
48 111000 0 0 0 0 0 0 Units=N-m-kg
49 111000 0 0 0 0 0 0 Units=N-m-kg
50 111000 0 0 0 0 0 0 Units=N-m-kg
51 111000 0 0 0 0 0 0 Units=N-m-kg
52 111000 0 0 0 0 0 0 Units=N-m-kg
53 111000 0 0 0 0 0 0 Units=N-m-kg
54 111000 0 0 0 0 0 0 Units=N-m-kg
55 111000 0 0 0 0 0 0 Units=N-m-kg
501 111111 0 0 0 0 0 0 Units=N-m-kg
502 111111 0 0 0 0 0 0 Units=N-m-kg
503 111111 0 0 0 0 0 0 Units=N-m-kg
504 111111 0 0 0 0 0 0 Units=N-m-kg
505 111111 0 0 0 0 0 0 Units=N-m-kg
506 111111 0 0 0 0 0 0 Units=N-m-kg
507 111111 0 0 0 0 0 0 Units=N-m-kg
508 111111 0 0 0 0 0 0 Units=N-m-kg
509 111111 0 0 0 0 0 0 Units=N-m-kg
510 111111 0 0 0 0 0 0 Units=N-m-kg
511 111111 0 0 0 0 0 0 Units=N-m-kg
512 111111 0 0 0 0 0 0 Units=N-m-kg
513 111111 0 0 0 0 0 0 Units=N-m-kg
514 111111 0 0 0 0 0 0 Units=N-m-kg
515 111111 0 0 0 0 0 0 Units=N-m-kg
516 111111 0 0 0 0 0 0 Units=N-m-kg
517 111111 0 0 0 0 0 0 Units=N-m-kg
518 111111 0 0 0 0 0 0 Units=N-m-kg
519 111111 0 0 0 0 0 0 Units=N-m-kg
520 111111 0 0 0 0 0 0 Units=N-m-kg
521 111111 0 0 0 0 0 0 Units=N-m-kg
522 111111 0 0 0 0 0 0 Units=N-m-kg
523 111111 0 0 0 0 0 0 Units=N-m-kg
524 111111 0 0 0 0 0 0 Units=N-m-kg
525 111111 0 0 0 0 0 0 Units=N-m-kg
526 111111 0 0 0 0 0 0 Units=N-m-kg
527 111111 0 0 0 0 0 0 Units=N-m-kg
528 111111 0 0 0 0 0 0 Units=N-m-kg
529 111111 0 0 0 0 0 0 Units=N-m-kg
530 111111 0 0 0 0 0 0 Units=N-m-kg
531 111111 0 0 0 0 0 0 Units=N-m-kg
532 111111 0 0 0 0 0 0 Units=N-m-kg
533 111111 0 0 0 0 0 0 Units=N-m-kg
534 111111 0 0 0 0 0 0 Units=N-m-kg
535 111111 0 0 0 0 0 0 Units=N-m-kg
end constraints
static_load
global_pressure_loads
277:288 0.0 0.0 -8175.0 Units=N-m-kg name=Loadcase_36 mode=0
end global_pressure_loads
end static_load

